# Objective value = 1.3644218101927847e+00
X[0,0] 0
X[0,1] 0
X[0,2] 0
X[0,3] 0
X[0,4] 0
X[0,5] 0
X[0,6] 1
X[1,0] 0
X[1,1] 1
X[1,2] 0
X[1,3] 0
X[1,4] 0
X[1,5] 0
X[1,6] 0
X[2,0] 0
X[2,1] 0
X[2,2] 0
X[2,3] 0
X[2,4] 0
X[2,5] 0
X[2,6] 1
X[3,0] 0
X[3,1] 0
X[3,2] 0
X[3,3] 0
X[3,4] 1
X[3,5] 0
X[3,6] 0
X[4,0] 0
X[4,1] 0
X[4,2] 0
X[4,3] 0
X[4,4] 0
X[4,5] 0
X[4,6] 1
X[5,0] 0
X[5,1] 0
X[5,2] 1
X[5,3] 0
X[5,4] 0
X[5,5] 0
X[5,6] 0
X[6,0] 0
X[6,1] 0
X[6,2] 0
X[6,3] 0
X[6,4] 0
X[6,5] 1
X[6,6] 0
X[7,0] 1
X[7,1] 0
X[7,2] 0
X[7,3] 0
X[7,4] 0
X[7,5] 0
X[7,6] 0
X[8,0] 0
X[8,1] 0
X[8,2] 1
X[8,3] 0
X[8,4] 0
X[8,5] 0
X[8,6] 0
X[9,0] 0
X[9,1] 0
X[9,2] 0
X[9,3] 0
X[9,4] 0
X[9,5] 0
X[9,6] 1
X[10,0] 0
X[10,1] 0
X[10,2] 0
X[10,3] 0
X[10,4] 0
X[10,5] 1
X[10,6] 0
X[11,0] 0
X[11,1] 0
X[11,2] 0
X[11,3] 1
X[11,4] 0
X[11,5] 0
X[11,6] 0
X[12,0] 0
X[12,1] 0
X[12,2] 0
X[12,3] 0
X[12,4] 1
X[12,5] 0
X[12,6] 0
X[13,0] 0
X[13,1] 0
X[13,2] 0
X[13,3] 0
X[13,4] 1
X[13,5] 0
X[13,6] 0
X[14,0] 0
X[14,1] 0
X[14,2] 0
X[14,3] 0
X[14,4] 0
X[14,5] 0
X[14,6] 1
X[15,0] 0
X[15,1] 1
X[15,2] 0
X[15,3] 0
X[15,4] 0
X[15,5] 0
X[15,6] 0
X[16,0] 0
X[16,1] 0
X[16,2] 0
X[16,3] 0
X[16,4] 0
X[16,5] 0
X[16,6] 1
X[17,0] 0
X[17,1] 0
X[17,2] 0
X[17,3] 0
X[17,4] 0
X[17,5] 0
X[17,6] 1
X[18,0] 0
X[18,1] 0
X[18,2] 0
X[18,3] 1
X[18,4] 0
X[18,5] 0
X[18,6] 0
X[19,0] 0
X[19,1] 0
X[19,2] 0
X[19,3] 0
X[19,4] 0
X[19,5] 0
X[19,6] 1
X[20,0] 0
X[20,1] 0
X[20,2] 0
X[20,3] 0
X[20,4] 0
X[20,5] 1
X[20,6] 0
X[21,0] 0
X[21,1] 0
X[21,2] 0
X[21,3] 0
X[21,4] 0
X[21,5] 0
X[21,6] 1
X[22,0] 0
X[22,1] 1
X[22,2] 0
X[22,3] 0
X[22,4] 0
X[22,5] 0
X[22,6] 0
X[23,0] 0
X[23,1] 1
X[23,2] 0
X[23,3] 0
X[23,4] 0
X[23,5] 0
X[23,6] 0
X[24,0] 0
X[24,1] 0
X[24,2] 0
X[24,3] 0
X[24,4] 1
X[24,5] 0
X[24,6] 0
X[25,0] 0
X[25,1] 0
X[25,2] 0
X[25,3] 0
X[25,4] 0
X[25,5] 1
X[25,6] 0
X[26,0] 0
X[26,1] 0
X[26,2] 0
X[26,3] 1
X[26,4] 0
X[26,5] 0
X[26,6] 0
X[27,0] 0
X[27,1] 0
X[27,2] 0
X[27,3] 0
X[27,4] 0
X[27,5] 0
X[27,6] 1
X[28,0] 0
X[28,1] 0
X[28,2] 0
X[28,3] 0
X[28,4] 0
X[28,5] 0
X[28,6] 1
X[29,0] 0
X[29,1] 0
X[29,2] 0
X[29,3] 0
X[29,4] 0
X[29,5] 1
X[29,6] 0
X[30,0] 0
X[30,1] 0
X[30,2] 0
X[30,3] 0
X[30,4] 0
X[30,5] 0
X[30,6] 1
X[31,0] 0
X[31,1] 0
X[31,2] 1
X[31,3] 0
X[31,4] 0
X[31,5] 0
X[31,6] 0
X[32,0] 0
X[32,1] 0
X[32,2] 0
X[32,3] 1
X[32,4] 0
X[32,5] 0
X[32,6] 0
X[33,0] 0
X[33,1] 1
X[33,2] 0
X[33,3] 0
X[33,4] 0
X[33,5] 0
X[33,6] 0
X[34,0] 0
X[34,1] 0
X[34,2] 0
X[34,3] 0
X[34,4] 0
X[34,5] 0
X[34,6] 1
X[35,0] 0
X[35,1] 0
X[35,2] 0
X[35,3] 0
X[35,4] 0
X[35,5] 0
X[35,6] 1
X[36,0] 0
X[36,1] 0
X[36,2] 0
X[36,3] 0
X[36,4] 0
X[36,5] 0
X[36,6] 1
X[37,0] 0
X[37,1] 0
X[37,2] 0
X[37,3] 0
X[37,4] 0
X[37,5] 1
X[37,6] 0
X[38,0] 1
X[38,1] 0
X[38,2] 0
X[38,3] 0
X[38,4] 0
X[38,5] 0
X[38,6] 0
X[39,0] 0
X[39,1] 1
X[39,2] 0
X[39,3] 0
X[39,4] 0
X[39,5] 0
X[39,6] 0
X[40,0] 0
X[40,1] 0
X[40,2] 0
X[40,3] 0
X[40,4] 0
X[40,5] 1
X[40,6] 0
X[41,0] 0
X[41,1] 0
X[41,2] 0
X[41,3] 0
X[41,4] 0
X[41,5] 1
X[41,6] 0
X[42,0] 0
X[42,1] 0
X[42,2] 1
X[42,3] 0
X[42,4] 0
X[42,5] 0
X[42,6] 0
X[43,0] 1
X[43,1] 0
X[43,2] 0
X[43,3] 0
X[43,4] 0
X[43,5] 0
X[43,6] 0
X[44,0] 0
X[44,1] 0
X[44,2] 0
X[44,3] 0
X[44,4] 0
X[44,5] 0
X[44,6] 1
X[45,0] 1
X[45,1] 0
X[45,2] 0
X[45,3] 0
X[45,4] 0
X[45,5] 0
X[45,6] 0
C322 0
C323 0
C324 0
C325 0
C326 0
C327 0
C328 0
C329 0
C330 0
C331 0
C332 0
C333 0
C334 0
C335 0
C336 0
C337 0
C338 0
C339 0
C340 0
C341 0
C342 0
C343 0
C344 0
C345 0
C346 0
C347 0
C348 0
C349 0
C350 0
C351 0
C352 0
C353 0
C354 0
C355 0
C356 0
C357 0
C358 0
C359 1
C360 0
C361 0
C362 0
C363 0
C364 0
C365 0
C366 0
C367 0
C368 0
C369 0
C370 0
C371 0
C372 0
C373 0
C374 0
C375 0
C376 0
C377 0
C378 0
C379 0
C380 0
C381 0
C382 0
C383 0
C384 0
C385 0
C386 0
C387 0
C388 0
C389 0
C390 0
C391 0
C392 0
C393 0
C394 0
C395 0
C396 0
C397 0
C398 0
C399 0
C400 0
C401 0
C402 1
C403 0
C404 0
C405 0
C406 0
C407 0
C408 0
C409 0
C410 0
C411 0
C412 0
C413 0
C414 0
C415 0
C416 0
C417 0
C418 0
C419 0
C420 0
C421 0
C422 0
C423 0
C424 0
C425 0
C426 0
C427 0
C428 0
C429 0
C430 0
C431 0
C432 0
C433 0
C434 0
C435 0
C436 0
C437 0
C438 0
C439 0
C440 0
C441 0
C442 0
C443 0
C444 0
C445 0
C446 0
C447 0
C448 0
C449 0
C450 0
C451 0
C452 0
C453 0
C454 0
C455 0
C456 0
C457 0
C458 0
C459 0
C460 0
C461 0
C462 0
C463 0
C464 0
C465 0
C466 0
C467 0
C468 0
C469 0
C470 0
C471 0
C472 0
C473 0
C474 0
C475 0
C476 0
C477 1
C478 0
C479 0
C480 0
C481 0
C482 0
C483 0
C484 0
C485 0
C486 0
C487 0
C488 0
C489 0
C490 0
C491 0
C492 0
C493 0
C494 0
C495 0
C496 0
C497 0
C498 0
C499 0
C500 0
C501 0
C502 0
C503 0
C504 0
C505 0
C506 0
C507 0
C508 0
C509 0
C510 0
C511 0
C512 0
C513 0
C514 0
C515 0
C516 0
C517 0
C518 0
C519 0
C520 0
C521 0
C522 0
C523 0
C524 0
C525 0
C526 0
C527 0
C528 0
C529 0
C530 0
C531 0
C532 0
C533 0
C534 0
C535 0
C536 0
C537 0
C538 0
C539 0
C540 0
C541 0
C542 0
C543 0
C544 0
C545 0
C546 0
C547 0
C548 0
C549 0
C550 0
C551 0
C552 0
C553 0
C554 0
C555 0
C556 0
C557 0
C558 0
C559 0
C560 0
C561 0
C562 0
C563 0
C564 0
C565 0
C566 0
C567 0
C568 0
C569 0
C570 0
C571 0
C572 0
C573 0
C574 0
C575 0
C576 0
C577 0
C578 0
C579 0
C580 0
C581 0
C582 0
C583 0
C584 0
C585 0
C586 0
C587 0
C588 0
C589 0
C590 0
C591 0
C592 0
C593 0
C594 0
C595 0
C596 0
C597 0
C598 0
C599 0
C600 0
C601 0
C602 0
C603 0
C604 0
C605 0
C606 0
C607 0
C608 0
C609 0
C610 0
C611 0
C612 0
C613 0
C614 0
C615 0
C616 0
C617 0
C618 0
C619 0
C620 0
C621 0
C622 0
C623 0
C624 0
C625 0
C626 0
C627 0
C628 0
C629 0
C630 0
C631 0
C632 0
C633 0
C634 0
C635 0
C636 0
C637 1
C638 0
C639 0
C640 0
C641 0
C642 0
C643 0
y[0] 629679
y[1] 517860
y[2] 631354
y[3] 537662
y[4] 583282
y[5] 595591
y[6] 519032
z[0] 89262
z[1] 217520
z[2] 131180
z[3] 92355
z[4] 109767
z[5] 108679
z[6] 222581
f[0] 3.1617089627749617e-02
f[1] 5.1927495050011530e-01
f[2] 8.2874531725623854e-02
f[3] 5.0078209276431238e-02
f[4] 6.4651602776335110e-02
f[5] 5.9415588797808165e-02
f[6] 5.5650983748872163e-01
l[0,0] 1.4462160830522186e-01
l[0,1] 0.847685416773901
l[0,2] 0.00769297492087717
l[0,3] 0
l[1,0] 1.0822633619264684e-01
l[1,1] 8.6570609096423345e-01
l[1,2] 2.6067572843119675e-02
l[1,3] 0
l[2,0] 9.5683914114372132e-02
l[2,1] 0
l[2,2] 5.8781462563229692e-02
l[2,3] 0.845534623322398
l[3,0] 3.6475247859902034e-02
l[3,1] 0
l[3,2] 9.3900428513681369e-02
l[3,3] 8.6962432362641651e-01
l[4,0] 4.3641334798964523e-02
l[4,1] 8.5798378047905766e-01
l[4,2] 9.8374884721977876e-02
l[4,3] 0
l[5,0] 8.5782407271923586e-02
l[5,1] 0
l[5,2] 5.9121844868903178e-02
l[5,3] 8.5509574785917331e-01
l[6,0] 1.5701880578175087e-03
l[6,1] 8.6496503125656765e-01
l[6,2] 1.3346478068561488e-01
l[6,3] 0
xi[0,0] 629679
xi[0,1] 6.1590662869175861e+05
xi[0,2] 6.3499404690247588e+05
xi[0,3] 6.3539612948586291e+05
xi[0,4] 635961.131228381
xi[0,5] 6.3587014255550539e+05
xi[0,6] 6.3596352377550188e+05
xi[0,7] 6.3597429953854682e+05
xi[1,0] 517860
xi[1,1] 5.6168155491418124e+05
xi[1,2] 5.5143249051312241e+05
xi[1,3] 5.5924996414946369e+05
xi[1,4] 5.6114167925936123e+05
xi[1,5] 5.6158075471038138e+05
xi[1,6] 5.6167344778959861e+05
xi[1,7] 5.6168807497112639e+05
xi[2,0] 631354
xi[2,1] 6.3349545102659054e+05
xi[2,2] 6.4481465836542263e+05
xi[2,3] 6.4224765268762910e+05
xi[2,4] 6.4430725182849553e+05
xi[2,5] 6.4475514329140622e+05
xi[2,6] 6.4483345560141443e+05
xi[2,7] 6.4483619584260986e+05
xi[3,0] 537662
xi[3,1] 5.3207764560499880e+05
xi[3,2] 5.4534854212165927e+05
xi[3,3] 5.4412538350676664e+05
xi[3,4] 5.4539391366851074e+05
xi[3,5] 545535.532997982
xi[3,6] 5.4550579891650763e+05
xi[3,7] 5.4553093542311480e+05
xi[4,0] 583282
xi[4,1] 580888.31380249
xi[4,2] 5.9348887930057419e+05
xi[4,3] 5.9123238518493332e+05
xi[4,4] 5.9307501707427029e+05
xi[4,5] 5.9346068745080126e+05
xi[4,6] 5.9351947430029081e+05
xi[4,7] 5.9351534955919348e+05
xi[5,0] 595591
xi[5,1] 5.9184398739375477e+05
xi[5,2] 6.0534910704669694e+05
xi[5,3] 6.0337547133685485e+05
xi[5,4] 6.0509114797921060e+05
xi[5,5] 6.0540246341598430e+05
xi[5,6] 6.0542137234697270e+05
xi[5,7] 6.0542331480448553e+05
xi[6,0] 519032
xi[6,1] 5.6470110257748340e+05
xi[6,2] 5.5521871384805068e+05
xi[6,3] 5.6266931475635176e+05
xi[6,4] 5.6436501103874913e+05
xi[6,5] 5.6470313483424089e+05
xi[6,6] 5.6474464293852227e+05
xi[6,7] 5.6473451985430950e+05
eta_rhs[0,0] 89262
eta_rhs[0,1] -1.5850038617716398e+05
eta_rhs[0,2] 35297.4231774894
eta_rhs[0,3] -2.7112844166838884e+04
eta_rhs[0,4] -4.0972247916157066e+03
eta_rhs[0,5] -1.1511276669111101e+04
eta_rhs[0,6] 3.7073050918530489e+03
eta_rhs[0,7] -1.9496351997418651e+02
eta_rhs[1,0] 217520
eta_rhs[1,1] 2.7858336272537890e+03
eta_rhs[1,2] -1.0684633080339301e+05
eta_rhs[1,3] 52282.0007113347
eta_rhs[1,4] 2.4777929643515356e+04
eta_rhs[1,5] 1.0999360809870948e+04
eta_rhs[1,6] 4.1070728461205690e+03
eta_rhs[1,7] 660.632045593441
eta_rhs[2,0] 131180
eta_rhs[2,1] -1.2041419868257926e+05
eta_rhs[2,2] -5488.35791705263
eta_rhs[2,3] -5.7740958882284453e+04
eta_rhs[2,4] 2.6157808709188597e+04
eta_rhs[2,5] 1.0337838960102561e+04
eta_rhs[2,6] 2.4249231138442469e+03
eta_rhs[2,7] -1.5317462360334598e+03
eta_rhs[3,0] 92355
eta_rhs[3,1] -1.2042944538717723e+05
eta_rhs[3,2] 1.4312228144246052e+04
eta_rhs[3,3] -3.9210193728100785e+04
eta_rhs[3,4] 1.2463996221580792e+04
eta_rhs[3,5] -9.2439437144652948e+02
eta_rhs[3,6] -5.7702354133078479e+03
eta_rhs[3,7] 2.4229661327467725e+03
eta_rhs[4,0] 109767
eta_rhs[4,1] -121800.873151587
eta_rhs[4,2] 6134.81533225048
eta_rhs[4,3] -5.2066808247089924e+04
eta_rhs[4,4] 2.2993693368460765e+04
eta_rhs[4,5] 8.4319785726064820e+03
eta_rhs[4,6] 1.1486681128379823e+03
eta_rhs[4,7] -2.4931205417558726e+03
eta_rhs[5,0] 108679
eta_rhs[5,1] -1.2751650445193976e+05
eta_rhs[5,2] 9.6032764910251135e+03
eta_rhs[5,3] -4.9777554284159814e+04
eta_rhs[5,4] 2.0111363915559574e+04
eta_rhs[5,5] 5.2556266089480505e+03
eta_rhs[5,6] -2.1739886383184721e+03
eta_rhs[5,7] -1.5408479911627014e+03
eta_rhs[6,0] 222581
eta_rhs[6,1] 7.0130829585602332e+03
eta_rhs[6,2] -1.0328939140863050e+05
eta_rhs[6,3] 4.8371074168028550e+04
eta_rhs[6,4] 2.0703934400521030e+04
eta_rhs[6,5] 6847.48805627299
eta_rhs[6,6] -8.2803686327723881e+01
eta_rhs[6,7] -3.3824058576397069e+03
eta[0,0] 89262
eta[0,1] 1.5850038617716398e+05
eta[0,2] 35297.4231774894
eta[0,3] 2.7112844166838913e+04
eta[0,4] 4.0972247916157066e+03
eta[0,5] 1.1511276669111159e+04
eta[0,6] 3.7073050918530489e+03
eta[0,7] 1.9496351997418651e+02
eta[1,0] 217520
eta[1,1] 2.7858336272537890e+03
eta[1,2] 1.0684633080339307e+05
eta[1,3] 52282.0007113347
eta[1,4] 2.4777929643515356e+04
eta[1,5] 1.0999360809870948e+04
eta[1,6] 4.1070728461205681e+03
eta[1,7] 660.632045593441
eta[2,0] 131180
eta[2,1] 1.2041419868257931e+05
eta[2,2] 5.4883579170526882e+03
eta[2,3] 5.7740958882284394e+04
eta[2,4] 2.6157808709188597e+04
eta[2,5] 1.0337838960102565e+04
eta[2,6] 2.4249231138442469e+03
eta[2,7] 1.5317462360333661e+03
eta[3,0] 92355
eta[3,1] 1.2042944538717723e+05
eta[3,2] 1.4312228144246052e+04
eta[3,3] 3.9210193728100727e+04
eta[3,4] 1.2463996221580792e+04
eta[3,5] 9.2439437144651356e+02
eta[3,6] 5.7702354133077306e+03
eta[3,7] 2.4229661327470344e+03
eta[4,0] 109767
eta[4,1] 1.2180087315158706e+05
eta[4,2] 6134.81533225048
eta[4,3] 5.2066808247089983e+04
eta[4,4] 2.2993693368460765e+04
eta[4,5] 8.4319785726064820e+03
eta[4,6] 1.1486681128379823e+03
eta[4,7] 2.4931205417558726e+03
eta[5,0] 108679
eta[5,1] 1.2751650445193982e+05
eta[5,2] 9.6032764910251135e+03
eta[5,3] 4.9777554284159756e+04
eta[5,4] 2.0111363915559574e+04
eta[5,5] 5.2556266089480505e+03
eta[5,6] 2.1739886383184794e+03
eta[5,7] 1.5408479911627014e+03
eta[6,0] 222581
eta[6,1] 7.0130829585602078e+03
eta[6,2] 1.0328939140863038e+05
eta[6,3] 4.8371074168028550e+04
eta[6,4] 2.0703934400521030e+04
eta[6,5] 6847.48805627299
eta[6,6] 8.2803686327720243e+01
eta[6,7] 3.3824058576397069e+03
delta[0,1] 1
delta[0,2] 0
delta[0,3] 1
delta[0,4] 1
delta[0,5] 1
delta[0,6] 0
delta[0,7] 1
delta[1,1] 0
delta[1,2] 1
delta[1,3] 0
delta[1,4] 0
delta[1,5] 0
delta[1,6] 0
delta[1,7] 0
delta[2,1] 1
delta[2,2] 1
delta[2,3] 1
delta[2,4] 0
delta[2,5] 0
delta[2,6] 0
delta[2,7] 1
delta[3,1] 1
delta[3,2] 0
delta[3,3] 1
delta[3,4] 0
delta[3,5] 1
delta[3,6] 1
delta[3,7] 0
delta[4,1] 1
delta[4,2] 0
delta[4,3] 1
delta[4,4] 0
delta[4,5] 0
delta[4,6] 0
delta[4,7] 1
delta[5,1] 1
delta[5,2] 0
delta[5,3] 1
delta[5,4] 0
delta[5,5] 0
delta[5,6] 1
delta[5,7] 1
delta[6,1] 0
delta[6,2] 1
delta[6,3] 0
delta[6,4] 0
delta[6,5] 0
delta[6,6] 1
delta[6,7] 1
